clear
print "Validation"

# --------------------- VARIABLES-------------------------
variable        THERMO_FREQ     equal 1
variable        DUMP_FREQ       equal 1
variable        TEMP            equal 330

# ---------------------- INITIALIZAITION ------------------
units           metal
boundary        p p p
atom_style      atomic

# --------------------- ATOM DEFINITION ------------------
read_data       conf.lmp
mass            1 15.999
mass            2 1.0079
mass            3 195.08

# --------------------- FORCE FIELDS ---------------------
pair_style      deepmd graph.pb
pair_coeff      * *

# --------------------- PRINT SECTION ----------------------
variable        time equal step*dt
variable        temp equal temp
variable        pe equal pe
variable        ke equal ke
variable        float1 format time %10.4f
variable        float2 format temp %.7f
variable        float3 format pe   %.7f
variable        float4 format ke   %.7f
fix             sys_info all print 1 "${float1} ${float2} ${float3} ${float4}" title "time temp pe ke" file energy.log screen "no"

# --------------------- MD SETTINGS ----------------------
# set velocity
velocity        all create ${TEMP} 34524
velocity        all scale ${TEMP}

neighbor        2.0 bin
neigh_modify    every 10 delay 0 check no

# set ensemble
timestep        0.0005
fix             1 all nvt temp ${TEMP} ${TEMP} $(100.0*dt)

# save trajectory to file
dump            TRAJ all custom ${DUMP_FREQ} lammps.dump id element x y z fx fy fz
dump_modify     TRAJ element O H Pt sort id

# --------------------- RUN ------------------------------
rerun           validate.xyz dump x y z box no format xyz
#rerun           lammps.dump dump x y z
write_restart   restart.lmp
