&FORCE_EVAL
METHOD QS
STRESS_TENSOR ANALYTICAL
&DFT
BASIS_SET_FILE_NAME /data/jxzhu/basis/BASIS_MOLOPT
BASIS_SET_FILE_NAME /data/jxzhu/basis/BASIS_ADMM
BASIS_SET_FILE_NAME /data/jxzhu/basis/BASIS_ADMM_MOLOPT
BASIS_SET_FILE_NAME /data/jxzhu/basis/BASIS_MOLOPT-HSE06
POTENTIAL_FILE_NAME /data/jxzhu/basis/GTH_POTENTIALS
&MGRID
CUTOFF 400
&END MGRID
&QS
EPS_DEFAULT 1e-13
&END QS
&SCF
SCF_GUESS RESTART
EPS_SCF 1e-06
MAX_SCF 500
ADDED_MOS 500
CHOLESKY INVERSE
&SMEAR ON
METHOD FERMI_DIRAC
ELECTRONIC_TEMPERATURE 300
&END SMEAR
&DIAGONALIZATION
ALGORITHM STANDARD
&END DIAGONALIZATION
&MIXING
METHOD BROYDEN_MIXING
ALPHA 0.3
BETA 1.5
NBUFFER 8
&END MIXING
&END SCF
&XC
&XC_FUNCTIONAL PBE
&END XC_FUNCTIONAL
&vdW_POTENTIAL
DISPERSION_FUNCTIONAL PAIR_POTENTIAL
&PAIR_POTENTIAL
TYPE DFTD3
PARAMETER_FILE_NAME /data/jxzhu/basis/dftd3.dat
REFERENCE_FUNCTIONAL PBE
&END PAIR_POTENTIAL
&END vdW_POTENTIAL
&END XC
&PRINT
&MOMENTS
PERIODIC .FALSE.
&END MOMENTS
&V_HARTREE_CUBE
ADD_LAST NUMERIC
STRIDE 8 8 1
&END V_HARTREE_CUBE
&PDOS
&LDOS
LIST 1..3
&END LDOS
&LDOS
LIST 4..6
&END LDOS
&LDOS
LIST 7..9
&END LDOS
&LDOS
LIST 10..12
&END LDOS
&LDOS
LIST 13..15
&END LDOS
&LDOS
LIST 16..18
&END LDOS
&LDOS
LIST 19..21
&END LDOS
&LDOS
LIST 22..24
&END LDOS
&LDOS
LIST 25..27
&END LDOS
&LDOS
LIST 28..30
&END LDOS
&LDOS
LIST 31..33
&END LDOS
&LDOS
LIST 34..36
&END LDOS
&LDOS
LIST 37..39
&END LDOS
&LDOS
LIST 40..42
&END LDOS
&LDOS
LIST 43..45
&END LDOS
&LDOS
LIST 46..48
&END LDOS
&LDOS
LIST 49..51
&END LDOS
&LDOS
LIST 52..54
&END LDOS
&LDOS
LIST 55..57
&END LDOS
&LDOS
LIST 58..60
&END LDOS
&LDOS
LIST 61..63
&END LDOS
&LDOS
LIST 64..66
&END LDOS
&LDOS
LIST 67..69
&END LDOS
&LDOS
LIST 70..72
&END LDOS
&LDOS
LIST 73..75
&END LDOS
&LDOS
LIST 76..78
&END LDOS
&LDOS
LIST 79..81
&END LDOS
&LDOS
LIST 82..84
&END LDOS
&LDOS
LIST 85..87
&END LDOS
&LDOS
LIST 88..90
&END LDOS
&LDOS
LIST 91..93
&END LDOS
&LDOS
LIST 94..96
&END LDOS
&LDOS
LIST 97..99
&END LDOS
&LDOS
LIST 100..102
&END LDOS
&LDOS
LIST 103..105
&END LDOS
&LDOS
LIST 106..108
&END LDOS
&LDOS
LIST 109..111
&END LDOS
&LDOS
LIST 112..114
&END LDOS
&LDOS
LIST 115..117
&END LDOS
&LDOS
LIST 118..120
&END LDOS
&LDOS
LIST 121..123
&END LDOS
&LDOS
LIST 124..126
&END LDOS
&LDOS
LIST 127..129
&END LDOS
&LDOS
LIST 130..132
&END LDOS
&LDOS
LIST 133..135
&END LDOS
&LDOS
LIST 136..138
&END LDOS
&LDOS
LIST 139..141
&END LDOS
&LDOS
LIST 142..144
&END LDOS
&LDOS
LIST 145..147
&END LDOS
&LDOS
LIST 148..150
&END LDOS
&LDOS
LIST 151..153
&END LDOS
&LDOS
LIST 154..156
&END LDOS
&LDOS
LIST 157..159
&END LDOS
&LDOS
LIST 160..162
&END LDOS
&LDOS
LIST 163..165
&END LDOS
&LDOS
LIST 166..168
&END LDOS
&LDOS
LIST 169..171
&END LDOS
&LDOS
LIST 172..174
&END LDOS
&LDOS
LIST 175..177
&END LDOS
&LDOS
LIST 178..180
&END LDOS
&LDOS
LIST 181..183
&END LDOS
&LDOS
LIST 184..186
&END LDOS
&LDOS
LIST 187..189
&END LDOS
&LDOS
LIST 190..192
&END LDOS
&LDOS
LIST 193..195
&END LDOS
&LDOS
LIST 196..198
&END LDOS
&LDOS
LIST 199..201
&END LDOS
&LDOS
LIST 202..204
&END LDOS
&LDOS
LIST 205..207
&END LDOS
&LDOS
LIST 208..210
&END LDOS
&LDOS
LIST 211..213
&END LDOS
&LDOS
LIST 214..216
&END LDOS
&LDOS
LIST 217..219
&END LDOS
&END PDOS
&END PRINT
SURFACE_DIPOLE_CORRECTION .TRUE.
&END DFT
&SUBSYS
#&CELL
#A 11.2460 0.0000 0.0000
#B 0.0000 11.2460 0.0000
#C 0.0000 0.0000 60.0000
#&END CELL
#&TOPOLOGY
#COORD_FILE_FORMAT XYZ
#COORD_FILE_NAME coord.xyz
#&END TOPOLOGY
&KIND O
POTENTIAL GTH-PBE-q6
BASIS_SET DZVP-MOLOPT-SR-GTH
&END KIND
&KIND H
POTENTIAL GTH-PBE-q1
BASIS_SET DZVP-MOLOPT-SR-GTH
&END KIND
&KIND Pt
POTENTIAL GTH-PBE-q10
BASIS_SET DZVP-A5-Q10-323-MOL-T1-DERIVED_SET-1
&END KIND
&KIND Ag
POTENTIAL GTH-PBE-q11
BASIS_SET DZVP-MOLOPT-SR-GTH
&END KIND
&KIND Na
POTENTIAL GTH-PBE-q9
BASIS_SET DZVP-MOLOPT-SR-GTH
&END KIND
&KIND K
POTENTIAL GTH-PBE-q9
BASIS_SET DZVP-MOLOPT-SR-GTH
&END KIND
&KIND Li
POTENTIAL GTH-PBE-q3
BASIS_SET DZVP-MOLOPT-SR-GTH
&END KIND
&KIND C
POTENTIAL GTH-PBE-q4
BASIS_SET DZVP-MOLOPT-SR-GTH
&END KIND
&KIND N
POTENTIAL GTH-PBE-q5
BASIS_SET DZVP-MOLOPT-SR-GTH
&END KIND
&KIND Cl
POTENTIAL GTH-PBE-q7
BASIS_SET DZVP-MOLOPT-SR-GTH
&END KIND
&KIND F
POTENTIAL GTH-PBE-q7
BASIS_SET DZVP-MOLOPT-SR-GTH
&END KIND
&END SUBSYS
&PRINT
&FORCES ON
&END FORCES
&STRESS_TENSOR ON
&END STRESS_TENSOR
&END PRINT
&END FORCE_EVAL
&GLOBAL
EXTENDED_FFT_LENGTHS .TRUE.
&END GLOBAL